NAME : XML100_1163_24
DIMENSION : 101
NB_CLUSTERS : 20
CLUSTERING_ALG : DBSCAN
CLUSTERING_PARAMS : eps(88), minSamples(3)
CLUSTERS
1 0
2 1 3 33 70 96
3 4 41 49 84
4 7 14 27 43 67 85
5 9 17 26 35 59 66 68 86
6 10 13 16 18 38 44 46 52 55 65 74
7 12 15 21 23 40 88 94
8 19 28 30 62 69 79 83 91
9 22 31 45 47 57 64 76 77 89 100
10 24 36 50 60 73 82 90
11 2 8 25 48 51 63 75 78 99
12 32 39 92 97
13 34 53 61 71 72 87 95
14 5 11
15 54 58
16 56 81
17 42 98
18 20 29
19 80 93
20 6 37
EOF